1777 6057
9857 6023
3851 3200
8218 2782
6031 2939
3874 7403
5157 4166
4769 7849
5902 9671
4155 8087
7307 6253
1260 4607
9214 6666
3923 3972
6827 4935
1293 8820
2919 9568
5524 2903
9550 9663
2304 8300
8121 6506
4950 7222
8487 3466
9550 8607
8587 4767
650 6223
4204 6831
5965 1058
7330 4734
6116 3015
4847 2141
5773 4622
6436 9466
482 2526
1076 9699
7027 4269
1180 152
794 8708
8136 135
5066 3064
2125 9273
3609 5318
12 279
5607 5175
2910 8142
7068 4297
5912 5332
9729 9148
249 9298
258 8538
